NAME : rnd12_50.tsp.tsp.optbc.tour
TYPE : TOUR
DIMENSION : 50
TOUR_SECTION
1
47
9
8
41
25
40
23
10
37
29
44
32
20
21
22
33
14
46
11
30
42
43
35
45
5
36
38
49
50
2
13
24
7
18
31
26
34
15
28
19
39
4
3
12
16
48
27
17
6
-1